p wcnf 134 268 269 
1 106 -89 0 
1 -36 110 0 
1 -81 19 0 
1 -42 4 0 
1 99 53 0 
1 -41 -103 0 
1 -82 -47 0 
1 62 45 0 
1 104 41 0 
1 101 8 0 
1 -98 -43 0 
1 25 30 0 
1 91 84 0 
1 -86 33 0 
1 88 131 0 
1 24 -120 0 
1 124 -20 0 
1 -118 -99 0 
1 -6 -61 0 
1 41 -127 0 
1 114 -40 0 
1 82 -12 0 
1 -96 88 0 
1 -57 16 0 
1 78 -101 0 
1 -4 -85 0 
1 -115 -127 0 
1 -33 -134 0 
1 57 74 0 
1 -19 106 0 
1 28 -51 0 
1 48 23 0 
1 15 117 0 
1 -29 -71 0 
1 76 -116 0 
1 -118 -56 0 
1 -103 107 0 
1 -114 -57 0 
1 16 36 0 
1 124 115 0 
1 -68 75 0 
1 -104 -80 0 
1 -127 -109 0 
1 -102 74 0 
1 97 132 0 
1 -126 88 0 
1 -39 130 0 
1 29 -69 0 
1 -97 32 0 
1 112 105 0 
1 -117 124 0 
1 74 -118 0 
1 -32 43 0 
1 -94 -121 0 
1 -5 40 0 
1 23 -55 0 
1 -47 -49 0 
1 113 127 0 
1 -105 -122 0 
1 37 24 0 
1 -85 53 0 
1 -86 -113 0 
1 -61 -103 0 
1 -50 83 0 
1 -11 -43 0 
1 42 -133 0 
1 -37 59 0 
1 -100 121 0 
1 131 36 0 
1 -88 68 0 
1 -2 100 0 
1 119 -12 0 
1 -55 -52 0 
1 29 133 0 
1 110 25 0 
1 102 23 0 
1 -20 15 0 
1 -53 103 0 
1 -106 92 0 
1 -25 45 0 
1 98 -59 0 
1 110 -18 0 
1 -93 -117 0 
1 -25 123 0 
1 47 -52 0 
1 77 22 0 
1 16 -39 0 
1 -129 -108 0 
1 131 81 0 
1 -10 102 0 
1 92 72 0 
1 -6 -42 0 
1 -35 39 0 
1 125 -77 0 
1 131 34 0 
1 -17 134 0 
1 43 54 0 
1 19 73 0 
1 88 77 0 
1 4 -72 0 
1 -43 48 0 
1 121 -4 0 
1 62 -94 0 
1 -35 -25 0 
1 122 -52 0 
1 -53 -71 0 
1 -39 -133 0 
1 -82 5 0 
1 2 1 0 
1 -85 -66 0 
1 -1 -30 0 
1 32 -57 0 
1 -7 -4 0 
1 42 95 0 
1 69 -108 0 
1 110 87 0 
1 -56 6 0 
1 -102 129 0 
1 72 112 0 
1 5 -80 0 
1 92 74 0 
1 -115 -100 0 
1 -102 125 0 
1 130 41 0 
1 -4 -5 0 
1 -111 -26 0 
1 -48 -21 0 
1 -11 122 0 
1 -33 117 0 
1 -78 45 0 
1 -99 8 0 
1 37 1 0 
1 -79 -107 0 
1 -35 38 0 
1 -68 -115 0 
1 -49 26 0 
1 -67 -52 0 
1 -102 -52 0 
1 14 -119 0 
1 105 -120 0 
1 107 132 0 
1 107 -80 0 
1 -25 -88 0 
1 50 -91 0 
1 29 -19 0 
1 -52 73 0 
1 -72 -62 0 
1 -34 -97 0 
1 10 124 0 
1 -39 85 0 
1 19 -33 0 
1 30 -134 0 
1 18 53 0 
1 -48 6 0 
1 -3 -20 0 
1 9 11 0 
1 45 -67 0 
1 16 125 0 
1 -21 -132 0 
1 61 -48 0 
1 -118 21 0 
1 121 -119 0 
1 82 -86 0 
1 -84 51 0 
1 -134 52 0 
1 -107 -94 0 
1 93 118 0 
1 47 63 0 
1 49 -54 0 
1 -110 -69 0 
1 -95 -34 0 
1 -3 60 0 
1 9 16 0 
1 63 -38 0 
1 129 -48 0 
1 -42 -50 0 
1 29 15 0 
1 46 104 0 
1 -14 104 0 
1 23 87 0 
1 126 -2 0 
1 134 2 0 
1 9 -97 0 
1 -41 43 0 
1 -58 -34 0 
1 20 85 0 
1 43 -69 0 
1 -132 -123 0 
1 44 7 0 
1 -4 116 0 
1 102 131 0 
1 96 -79 0 
1 -98 -8 0 
1 55 53 0 
1 -79 34 0 
1 -102 62 0 
1 -24 14 0 
1 -13 130 0 
1 -119 -65 0 
1 131 28 0 
1 81 55 0 
1 -75 -13 0 
1 93 38 0 
1 89 55 0 
1 14 -1 0 
1 108 -118 0 
1 43 -36 0 
1 54 -45 0 
1 33 104 0 
1 -32 -109 0 
1 -21 95 0 
1 -98 -41 0 
1 -116 58 0 
1 119 -131 0 
1 23 -65 0 
1 -121 108 0 
1 34 42 0 
1 97 -98 0 
1 -89 -41 0 
1 -14 -111 0 
1 -17 90 0 
1 65 -6 0 
1 -18 -8 0 
1 1 3 0 
1 -16 -104 0 
1 89 121 0 
1 -43 -103 0 
1 95 120 0 
1 36 63 0 
1 -95 -11 0 
1 -117 72 0 
1 -12 -129 0 
1 -9 79 0 
1 -21 30 0 
1 15 -13 0 
1 69 -4 0 
1 -130 -23 0 
1 -18 33 0 
1 -37 -45 0 
1 -116 -76 0 
1 51 121 0 
1 46 -109 0 
1 -128 -75 0 
1 58 -57 0 
1 13 -73 0 
1 74 78 0 
1 -102 -82 0 
1 76 43 0 
1 -42 -47 0 
1 -101 35 0 
1 122 21 0 
1 22 75 0 
1 -99 -42 0 
1 -117 97 0 
1 117 -85 0 
1 -113 37 0 
1 66 -11 0 
1 75 -72 0 
1 41 64 0 
1 -75 45 0 
1 23 -64 0 
1 -105 -15 0 
1 -73 92 0 
1 127 55 0 
1 -5 -123 0 
1 28 82 0 
1 -103 120 0 
1 127 -133 0 
